
Gurobi 10.0.0 (mac64[arm], Python) logging started Mon Nov 21 16:06:50 2022

Set parameter Username
Set parameter LogFile to value "gurobi.log"
Academic license - for non-commercial use only - expires 2023-11-16
